\ENCODING=ISO-8859-1
\Problem name: IloCplex

Maximize
 obj1: 9 x(0)(0) + 9 x(1)(0) + 9 x(2)(0) - U(0) + 9 x(0)(1) + 9 x(1)(1)
       + 9 x(2)(1) - U(1) + 9 x(0)(3) + 9 x(1)(3) + 9 x(2)(3) - U(3)
       + 9 x(0)(4) + 9 x(1)(4) + 9 x(2)(4) + 9 x(0)(6) + 9 x(1)(6) + 9 x(2)(6)
       - U(6) + 9 x(0)(7) + 9 x(1)(7) + 9 x(2)(7) - U(7) + 9 x(0)(8)
       + 9 x(1)(8) + 9 x(2)(8) + 9 x(0)(9) + 9 x(1)(9) + 9 x(2)(9) - U(9)
       + 9 x(0)(10) + 9 x(1)(10) + 9 x(2)(10) - U(10) + 9 x(0)(11) + 9 x(1)(11)
       + 9 x(2)(11)
Subject To
 c1:   x(0)(0) + x(1)(0) + x(2)(0) <= 1
 c2:   x(0)(1) + x(1)(1) + x(2)(1) <= 1
 c3:   x(0)(3) + x(1)(3) + x(2)(3) <= 1
 c4:   x(0)(4) + x(1)(4) + x(2)(4) <= 1
 c5:   x(0)(6) + x(1)(6) + x(2)(6) <= 1
 c6:   x(0)(7) + x(1)(7) + x(2)(7) <= 1
 c7:   x(0)(8) + x(1)(8) + x(2)(8) <= 1
 c8:   x(0)(9) + x(1)(9) + x(2)(9) <= 1
 c9:   x(0)(10) + x(1)(10) + x(2)(10) <= 1
 c10:  x(0)(11) + x(1)(11) + x(2)(11) <= 1
 c11:  x(0)(0) + x(0)(4) <= 1
 c12:  x(1)(0) + x(1)(4) <= 1
 c13:  x(2)(0) + x(2)(4) <= 1
 c14:  x(0)(0) + x(0)(6) <= 1
 c15:  x(1)(0) + x(1)(6) <= 1
 c16:  x(2)(0) + x(2)(6) <= 1
 c17:  x(0)(0) + x(0)(9) <= 1
 c18:  x(1)(0) + x(1)(9) <= 1
 c19:  x(2)(0) + x(2)(9) <= 1
 c20:  x(0)(0) + x(0)(10) <= 1
 c21:  x(1)(0) + x(1)(10) <= 1
 c22:  x(2)(0) + x(2)(10) <= 1
 c23:  x(0)(1) + x(0)(4) <= 1
 c24:  x(1)(1) + x(1)(4) <= 1
 c25:  x(2)(1) + x(2)(4) <= 1
 c26:  x(0)(1) + x(0)(6) <= 1
 c27:  x(1)(1) + x(1)(6) <= 1
 c28:  x(2)(1) + x(2)(6) <= 1
 c29:  x(0)(1) + x(0)(9) <= 1
 c30:  x(1)(1) + x(1)(9) <= 1
 c31:  x(2)(1) + x(2)(9) <= 1
 c32:  x(0)(1) + x(0)(10) <= 1
 c33:  x(1)(1) + x(1)(10) <= 1
 c34:  x(2)(1) + x(2)(10) <= 1
 c35:  x(0)(3) + x(0)(4) <= 1
 c36:  x(1)(3) + x(1)(4) <= 1
 c37:  x(2)(3) + x(2)(4) <= 1
 c38:  x(0)(3) + x(0)(6) <= 1
 c39:  x(1)(3) + x(1)(6) <= 1
 c40:  x(2)(3) + x(2)(6) <= 1
 c41:  x(0)(3) + x(0)(9) <= 1
 c42:  x(1)(3) + x(1)(9) <= 1
 c43:  x(2)(3) + x(2)(9) <= 1
 c44:  x(0)(3) + x(0)(10) <= 1
 c45:  x(1)(3) + x(1)(10) <= 1
 c46:  x(2)(3) + x(2)(10) <= 1
 c47:  x(0)(4) + x(0)(7) <= 1
 c48:  x(1)(4) + x(1)(7) <= 1
 c49:  x(2)(4) + x(2)(7) <= 1
 c50:  x(0)(4) + x(0)(8) <= 1
 c51:  x(1)(4) + x(1)(8) <= 1
 c52:  x(2)(4) + x(2)(8) <= 1
 c53:  x(0)(4) + x(0)(11) <= 1
 c54:  x(1)(4) + x(1)(11) <= 1
 c55:  x(2)(4) + x(2)(11) <= 1
 c56:  x(0)(6) + x(0)(7) <= 1
 c57:  x(1)(6) + x(1)(7) <= 1
 c58:  x(2)(6) + x(2)(7) <= 1
 c59:  x(0)(6) + x(0)(8) <= 1
 c60:  x(1)(6) + x(1)(8) <= 1
 c61:  x(2)(6) + x(2)(8) <= 1
 c62:  x(0)(6) + x(0)(11) <= 1
 c63:  x(1)(6) + x(1)(11) <= 1
 c64:  x(2)(6) + x(2)(11) <= 1
 c65:  x(0)(7) + x(0)(9) <= 1
 c66:  x(1)(7) + x(1)(9) <= 1
 c67:  x(2)(7) + x(2)(9) <= 1
 c68:  x(0)(7) + x(0)(10) <= 1
 c69:  x(1)(7) + x(1)(10) <= 1
 c70:  x(2)(7) + x(2)(10) <= 1
 c71:  x(0)(8) + x(0)(9) <= 1
 c72:  x(1)(8) + x(1)(9) <= 1
 c73:  x(2)(8) + x(2)(9) <= 1
 c74:  x(0)(8) + x(0)(10) <= 1
 c75:  x(1)(8) + x(1)(10) <= 1
 c76:  x(2)(8) + x(2)(10) <= 1
 c77:  x(0)(9) + x(0)(11) <= 1
 c78:  x(1)(9) + x(1)(11) <= 1
 c79:  x(2)(9) + x(2)(11) <= 1
 c80:  x(0)(10) + x(0)(11) <= 1
 c81:  x(1)(10) + x(1)(11) <= 1
 c82:  x(2)(10) + x(2)(11) <= 1
 c83:  x(0)(0) + x(0)(1) + x(0)(3) + x(0)(4) + x(0)(6) + x(0)(7) + x(0)(8)
       + x(0)(9) + x(0)(10) + x(0)(11) <= 3
 c84:  x(1)(0) + x(1)(1) + x(1)(3) + x(1)(4) + x(1)(6) + x(1)(7) + x(1)(8)
       + x(1)(9) + x(1)(10) + x(1)(11) <= 3
 c85:  x(2)(0) + x(2)(1) + x(2)(3) + x(2)(4) + x(2)(6) + x(2)(7) + x(2)(8)
       + x(2)(9) + x(2)(10) + x(2)(11) <= 3
 c86:  3 U(0) - w(0)(1) - w(0)(3) - w(0)(4) >= 0
 c87:  2 U(1) - w(1)(3) - w(1)(4) >= 0
 c88:  - x(0)(3) - x(1)(3) - x(2)(3) - x(0)(4) - x(1)(4) - x(2)(4) + 2 U(2)
       >= 0
 c89:  U(3) - w(3)(4) >= 0
 c90:  - x(0)(6) - x(1)(6) - x(2)(6) - x(0)(7) - x(1)(7) - x(2)(7) - x(0)(8)
       - x(1)(8) - x(2)(8) + 3 U(5) >= 0
 c91:  2 U(6) - w(6)(7) - w(6)(8) >= 0
 c92:  U(7) - w(7)(8) >= 0
 c93:  2 U(9) - w(9)(10) - w(9)(11) >= 0
 c94:  U(10) - w(10)(11) >= 0
 c95:  z(0)(1) + z(1)(0)  = 1
 c96:  z(0)(2) + z(2)(0)  = 1
 c97:  z(1)(2) + z(2)(1)  = 1
 c98:  z(0)(1) + z(2)(0) + z(1)(2) <= 2
 c99:  z(1)(0) + z(0)(2) + z(2)(1) <= 2
 c100: - x(0)(0) - x(1)(1) + w(0)(1) - z(1)(0) >= -2
 c101: - x(0)(0) - x(2)(1) + w(0)(1) - z(2)(0) >= -2
 c102: - x(1)(0) - x(0)(1) + w(0)(1) - z(0)(1) >= -2
 c103: - x(1)(0) - x(2)(1) + w(0)(1) - z(2)(1) >= -2
 c104: - x(2)(0) - x(0)(1) + w(0)(1) - z(0)(2) >= -2
 c105: - x(2)(0) - x(1)(1) + w(0)(1) - z(1)(2) >= -2
 c106: x(0)(0) + x(1)(0) + x(2)(0) - x(0)(1) - x(1)(1) - x(2)(1) + w(0)(1) >= 0
 c107: - x(0)(0) - x(1)(3) + w(0)(3) - z(1)(0) >= -2
 c108: - x(0)(0) - x(2)(3) + w(0)(3) - z(2)(0) >= -2
 c109: - x(1)(0) - x(0)(3) + w(0)(3) - z(0)(1) >= -2
 c110: - x(1)(0) - x(2)(3) + w(0)(3) - z(2)(1) >= -2
 c111: - x(2)(0) - x(0)(3) + w(0)(3) - z(0)(2) >= -2
 c112: - x(2)(0) - x(1)(3) + w(0)(3) - z(1)(2) >= -2
 c113: x(0)(0) + x(1)(0) + x(2)(0) - x(0)(3) - x(1)(3) - x(2)(3) + w(0)(3) >= 0
 c114: - x(0)(0) - x(1)(4) + w(0)(4) - z(1)(0) >= -2
 c115: - x(0)(0) - x(2)(4) + w(0)(4) - z(2)(0) >= -2
 c116: - x(1)(0) - x(0)(4) + w(0)(4) - z(0)(1) >= -2
 c117: - x(1)(0) - x(2)(4) + w(0)(4) - z(2)(1) >= -2
 c118: - x(2)(0) - x(0)(4) + w(0)(4) - z(0)(2) >= -2
 c119: - x(2)(0) - x(1)(4) + w(0)(4) - z(1)(2) >= -2
 c120: x(0)(0) + x(1)(0) + x(2)(0) - x(0)(4) - x(1)(4) - x(2)(4) + w(0)(4) >= 0
 c121: - x(0)(1) - x(1)(3) + w(1)(3) - z(1)(0) >= -2
 c122: - x(0)(1) - x(2)(3) + w(1)(3) - z(2)(0) >= -2
 c123: - x(1)(1) - x(0)(3) + w(1)(3) - z(0)(1) >= -2
 c124: - x(1)(1) - x(2)(3) + w(1)(3) - z(2)(1) >= -2
 c125: - x(2)(1) - x(0)(3) + w(1)(3) - z(0)(2) >= -2
 c126: - x(2)(1) - x(1)(3) + w(1)(3) - z(1)(2) >= -2
 c127: x(0)(1) + x(1)(1) + x(2)(1) - x(0)(3) - x(1)(3) - x(2)(3) + w(1)(3) >= 0
 c128: - x(0)(1) - x(1)(4) + w(1)(4) - z(1)(0) >= -2
 c129: - x(0)(1) - x(2)(4) + w(1)(4) - z(2)(0) >= -2
 c130: - x(1)(1) - x(0)(4) + w(1)(4) - z(0)(1) >= -2
 c131: - x(1)(1) - x(2)(4) + w(1)(4) - z(2)(1) >= -2
 c132: - x(2)(1) - x(0)(4) + w(1)(4) - z(0)(2) >= -2
 c133: - x(2)(1) - x(1)(4) + w(1)(4) - z(1)(2) >= -2
 c134: x(0)(1) + x(1)(1) + x(2)(1) - x(0)(4) - x(1)(4) - x(2)(4) + w(1)(4) >= 0
 c135: - x(0)(3) - x(1)(4) + w(3)(4) - z(1)(0) >= -2
 c136: - x(0)(3) - x(2)(4) + w(3)(4) - z(2)(0) >= -2
 c137: - x(1)(3) - x(0)(4) + w(3)(4) - z(0)(1) >= -2
 c138: - x(1)(3) - x(2)(4) + w(3)(4) - z(2)(1) >= -2
 c139: - x(2)(3) - x(0)(4) + w(3)(4) - z(0)(2) >= -2
 c140: - x(2)(3) - x(1)(4) + w(3)(4) - z(1)(2) >= -2
 c141: x(0)(3) + x(1)(3) + x(2)(3) - x(0)(4) - x(1)(4) - x(2)(4) + w(3)(4) >= 0
 c142: - x(0)(6) - x(1)(7) + w(6)(7) - z(1)(0) >= -2
 c143: - x(0)(6) - x(2)(7) + w(6)(7) - z(2)(0) >= -2
 c144: - x(1)(6) - x(0)(7) + w(6)(7) - z(0)(1) >= -2
 c145: - x(1)(6) - x(2)(7) + w(6)(7) - z(2)(1) >= -2
 c146: - x(2)(6) - x(0)(7) + w(6)(7) - z(0)(2) >= -2
 c147: - x(2)(6) - x(1)(7) + w(6)(7) - z(1)(2) >= -2
 c148: x(0)(6) + x(1)(6) + x(2)(6) - x(0)(7) - x(1)(7) - x(2)(7) + w(6)(7) >= 0
 c149: - x(0)(6) - x(1)(8) + w(6)(8) - z(1)(0) >= -2
 c150: - x(0)(6) - x(2)(8) + w(6)(8) - z(2)(0) >= -2
 c151: - x(1)(6) - x(0)(8) + w(6)(8) - z(0)(1) >= -2
 c152: - x(1)(6) - x(2)(8) + w(6)(8) - z(2)(1) >= -2
 c153: - x(2)(6) - x(0)(8) + w(6)(8) - z(0)(2) >= -2
 c154: - x(2)(6) - x(1)(8) + w(6)(8) - z(1)(2) >= -2
 c155: x(0)(6) + x(1)(6) + x(2)(6) - x(0)(8) - x(1)(8) - x(2)(8) + w(6)(8) >= 0
 c156: - x(0)(7) - x(1)(8) + w(7)(8) - z(1)(0) >= -2
 c157: - x(0)(7) - x(2)(8) + w(7)(8) - z(2)(0) >= -2
 c158: - x(1)(7) - x(0)(8) + w(7)(8) - z(0)(1) >= -2
 c159: - x(1)(7) - x(2)(8) + w(7)(8) - z(2)(1) >= -2
 c160: - x(2)(7) - x(0)(8) + w(7)(8) - z(0)(2) >= -2
 c161: - x(2)(7) - x(1)(8) + w(7)(8) - z(1)(2) >= -2
 c162: x(0)(7) + x(1)(7) + x(2)(7) - x(0)(8) - x(1)(8) - x(2)(8) + w(7)(8) >= 0
 c163: - x(0)(9) - x(1)(10) + w(9)(10) - z(1)(0) >= -2
 c164: - x(0)(9) - x(2)(10) + w(9)(10) - z(2)(0) >= -2
 c165: - x(1)(9) - x(0)(10) + w(9)(10) - z(0)(1) >= -2
 c166: - x(1)(9) - x(2)(10) + w(9)(10) - z(2)(1) >= -2
 c167: - x(2)(9) - x(0)(10) + w(9)(10) - z(0)(2) >= -2
 c168: - x(2)(9) - x(1)(10) + w(9)(10) - z(1)(2) >= -2
 c169: x(0)(9) + x(1)(9) + x(2)(9) - x(0)(10) - x(1)(10) - x(2)(10) + w(9)(10)
       >= 0
 c170: - x(0)(9) - x(1)(11) + w(9)(11) - z(1)(0) >= -2
 c171: - x(0)(9) - x(2)(11) + w(9)(11) - z(2)(0) >= -2
 c172: - x(1)(9) - x(0)(11) + w(9)(11) - z(0)(1) >= -2
 c173: - x(1)(9) - x(2)(11) + w(9)(11) - z(2)(1) >= -2
 c174: - x(2)(9) - x(0)(11) + w(9)(11) - z(0)(2) >= -2
 c175: - x(2)(9) - x(1)(11) + w(9)(11) - z(1)(2) >= -2
 c176: x(0)(9) + x(1)(9) + x(2)(9) - x(0)(11) - x(1)(11) - x(2)(11) + w(9)(11)
       >= 0
 c177: - x(0)(10) - x(1)(11) + w(10)(11) - z(1)(0) >= -2
 c178: - x(0)(10) - x(2)(11) + w(10)(11) - z(2)(0) >= -2
 c179: - x(1)(10) - x(0)(11) + w(10)(11) - z(0)(1) >= -2
 c180: - x(1)(10) - x(2)(11) + w(10)(11) - z(2)(1) >= -2
 c181: - x(2)(10) - x(0)(11) + w(10)(11) - z(0)(2) >= -2
 c182: - x(2)(10) - x(1)(11) + w(10)(11) - z(1)(2) >= -2
 c183: x(0)(10) + x(1)(10) + x(2)(10) - x(0)(11) - x(1)(11) - x(2)(11)
       + w(10)(11) >= 0
Bounds
 0 <= x(0)(0) <= 1
 0 <= x(1)(0) <= 1
 0 <= x(2)(0) <= 1
 0 <= U(0) <= 1
 0 <= x(0)(1) <= 1
 0 <= x(1)(1) <= 1
 0 <= x(2)(1) <= 1
 0 <= U(1) <= 1
 0 <= x(0)(3) <= 1
 0 <= x(1)(3) <= 1
 0 <= x(2)(3) <= 1
 0 <= U(3) <= 1
 0 <= x(0)(4) <= 1
 0 <= x(1)(4) <= 1
 0 <= x(2)(4) <= 1
 0 <= x(0)(6) <= 1
 0 <= x(1)(6) <= 1
 0 <= x(2)(6) <= 1
 0 <= U(6) <= 1
 0 <= x(0)(7) <= 1
 0 <= x(1)(7) <= 1
 0 <= x(2)(7) <= 1
 0 <= U(7) <= 1
 0 <= x(0)(8) <= 1
 0 <= x(1)(8) <= 1
 0 <= x(2)(8) <= 1
 0 <= x(0)(9) <= 1
 0 <= x(1)(9) <= 1
 0 <= x(2)(9) <= 1
 0 <= U(9) <= 1
 0 <= x(0)(10) <= 1
 0 <= x(1)(10) <= 1
 0 <= x(2)(10) <= 1
 0 <= U(10) <= 1
 0 <= x(0)(11) <= 1
 0 <= x(1)(11) <= 1
 0 <= x(2)(11) <= 1
 0 <= w(0)(1) <= 1
 0 <= w(0)(3) <= 1
 0 <= w(0)(4) <= 1
 0 <= w(1)(3) <= 1
 0 <= w(1)(4) <= 1
 0 <= U(2) <= 1
 0 <= w(3)(4) <= 1
 0 <= U(5) <= 1
 0 <= w(6)(7) <= 1
 0 <= w(6)(8) <= 1
 0 <= w(7)(8) <= 1
 0 <= w(9)(10) <= 1
 0 <= w(9)(11) <= 1
 0 <= w(10)(11) <= 1
 0 <= z(0)(1) <= 1
 0 <= z(1)(0) <= 1
 0 <= z(0)(2) <= 1
 0 <= z(2)(0) <= 1
 0 <= z(1)(2) <= 1
 0 <= z(2)(1) <= 1
End
